set MacroP:=
'Efec'

;

param w:=
'Efec' 28.40
;

param xo:=
'Efec' 0 67.11
'Efec' 1 127.4
'Efec' 2 250.8
'Efec' 3 500
'Efec' 4 50000


;

param F:=
'Efec' 0 9.51
'Efec' 1 40.5
'Efec' 2 89.59
'Efec' 3 100
'Efec' 4 100


; 


